% demand
num_movements = 29;
loading_factor = [1350, 1350, 1200, 1500, 850, 2000, 800, 1250, 1550, 1300, 1300, 950, 1000, 900, 900, 1700, 1950, 1200, 1350, 900, 1400, 1850, 1350, 1050, 1150, 1250, 1500, 1750, 1000];
pickup_time = [0, 0, 0, 0, 0, 1, 1, 2, 2, 2, 2, 2, 3, 4, 4, 4, 4, 5, 6, 6, 7, 7, 7, 7, 8, 8, 8, 8, 8];
delivery_time = [1, 1, 1, 1, 1, 2, 2, 3, 3, 3, 3, 3, 7, 5, 6, 5, 5, 7, 7, 7, 8, 8, 8, 8, 10, 10, 10, 10, 10];

% transporter definition
total_capacity = 7000;
num_decks = 3;
capacity = [3000, 1000, 3000];

% ways out of decks
num_ways_out = 1;
paths_out = array3d(decks, ways_out, decks, [
% ways out of deck d1
2, 3, 0, 

% ways out of deck d2
3, 0, 0, 

% ways out of deck d3
0, 0, 0,	

]);

